instances/p2/p2_4_20-1.dzn
Alphabet = {A,C,G,T};
ns = 4;
nc = 13;
neighbours = [| I(A),I(A),I(C),I(T),I(C),I(C),I(C),I(T),I(A),I(A),I(C),I(G),I(T) | I(A),I(C),I(G),I(C),I(T),I(T),I(A),I(T),I(C),I(C),I(C),I(C),Null | I(G),I(C),Null,Null,Null,Null,Null,Null,Null,Null,Null,Null,Null | Null,Null,Null,Null,Null,Null,Null,Null,Null,Null,Null,Null,Null |];
