instances/p2/p2_4_20-1.txt
{
	"num_strings": 4,
	"alphabet": "ACGT",
	"strings": [
		"AACTCCCTAACGT",
		"ACGCTTATCCCC",
		"GC",
		""
	],
	"str_length":[13,12,2,0]
}